n = 100;
C = 517;
w = [750,69,291,754,808,533,89,379,505,707,234,430,347,459,471,847,788,251,905,950,427,444,506,439,536,301,409,714,745,784,475,764,462,139,845,909,286,889,698,649,615,215,163,831,186,535,98,461,477,848,430,521,600,499,595,745,128,487,759,92,22,423,597,479,273,647,334,522,856,835,475,544,801,391,44,818,805,320,45,908,489,274,347,118,975,79,507,637,27,359,523,712,894,794,703,379,343,856,614,671];
p = [584,245,339,99,834,718,720,386,545,326,683,527,24,197,883,509,129,529,10,894,215,620,327,971,45,924,764,789,838,202,40,968,139,147,719,451,920,426,125,281,479,420,687,475,963,67,883,292,230,723,234,531,492,200,221,461,438,814,925,608,768,848,369,41,507,98,732,191,732,990,661,789,843,19,821,44,484,49,636,911,402,326,493,853,463,60,901,843,101,697,896,7,760,926,460,894,602,145,740,775];
